1000
[200,202,204,206,207,208,209,210,211,214,215,216,217,218,222,224,226,230,231,232,233,237,238,239,240,242,243,245,246,247,250,251,253,254,255,256,257,261,262,263,264,265,266,267,268,269,270,271,272,276,277,278,280,281,282,284,285,287,288,289,294,295,296,298,299,300,302,303,304,305,306,307,308,309,310,311,312,313,314,315,316,317,318,319,321,323,325,326,328,331,333,334,335,336,337,338,340,341,342,344,345,346,347,351,353,355,356,359,360,362,363,364,365,366,368,369,370,372,376,377,378,380,384,385,386,387,388,389,390,391,394,395,396,397,399,400,401,402,403,404,405,407,408,410,411,413,414,416,417,418,419,420,421,422,423,424,427,428,431,432,433,435,436,441,442,443,445,446,448,449,451,452,453,454,456,458,459,461,463,464,466,467,469,470,471,473,474,475,476,477,478,479,480,481,483,484,485,486,487,488,490,491,493,494,495,497,498,499,500,503,505,506,507,509,510,513,514,517,518,519,520,521,523,524,525,526,527,529,532,534,536,537,538,539,540,541,542,543,544,545,547,548,549,550,551,552,553,554,555,557,558,562,563,564,565,566,567,568,570,571,572,573,575,576,579,580,581,583,585,586,592,594,596,597,598,600,601,603,605,608,609,611,613,614,615,616,617,619,622,623,624,626,627,628,629,631,632,634,635,637,638,640,641,644,645,646,647,648,649,650,652,653,654,656,657,658,660,661,662,663,665,666,667,668,670,671,673,674,676,677,681,682,683,684,685,686,689,690,692,693,696,699]
[1,2,3,2,1,1,1,1,1,2,2,1,1,1,2,2,1,1,1,1,1,1,2,2,1,2,1,1,2,1,3,2,1,1,2,3,1,1,3,1,3,3,1,1,2,1,1,2,1,3,1,1,1,1,2,1,3,2,2,1,1,2,1,2,1,1,2,1,1,1,1,2,2,1,1,2,1,2,1,1,3,1,1,2,2,1,3,1,1,1,3,2,1,1,1,2,2,1,1,2,2,3,1,1,1,1,1,1,2,2,1,2,2,2,1,1,1,1,1,2,2,2,4,3,1,2,1,3,1,1,2,1,2,2,1,1,1,2,2,2,1,1,2,2,1,1,1,1,3,1,1,1,1,1,1,1,1,2,1,1,1,3,1,2,1,1,2,1,1,1,1,3,1,2,1,1,2,1,3,2,1,3,5,2,1,1,1,1,1,1,1,1,1,2,1,1,1,2,1,1,2,1,2,1,1,1,1,1,1,1,2,2,1,1,1,1,1,2,1,1,1,2,1,2,1,1,1,1,2,1,1,1,1,1,1,2,1,1,1,1,1,1,1,2,2,1,1,1,1,1,5,4,2,1,1,2,1,3,3,2,2,4,1,1,2,2,2,1,1,1,1,1,2,2,1,1,1,1,1,1,1,1,1,2,1,2,1,2,2,2,1,1,2,2,1,1,1,2,1,2,1,2,1,1,3,1,2,2,1,1,1,1,1,1,1,1,1,1,1,1,2,1,1,1,1,1,1,1,1,2,2,1,2,1,1,1,1,1,1,5,1,1]
